c status 9 1489742111381
s td 10 9 20
b 1 8 7 9 13 1
b 2 7 2 9 18 13 6 1
b 3 10 5 9 11 3
b 4 5 4 9 18 11 3 6
b 5 9 18 11 13 3 6 1
b 6 14 19 15 13 3
b 7 19 15 18 13 20 3 6
b 8 12 17 15 11 1
b 9 17 15 16 18 11 6 1
b 10 15 16 18 11 13 20 3 6 1
1 2
2 5
5 10
10 7
10 9
5 4
7 6
9 8
4 3
